
Gurobi 12.0.2 (win64) logging started Sat Jun  7 11:43:32 2025

Set parameter LogFile to value "C:\Ioana\_uni\honours\slp\algorithm\Main_files\results\others\prox_tubules_new_1\Task_001_Sample004_irr_gurobi.log"
Gurobi Optimizer version 12.0.2 build v12.0.2rc0 (win64 - Windows 11.0 (26100.2))

CPU model: Intel(R) Core(TM) Ultra 5 125H, instruction set [SSE2|AVX|AVX2]
Thread count: 14 physical cores, 18 logical processors, using up to 18 threads

Non-default parameters:
TimeLimit  2200

Optimize a model with 47658 rows, 34797 columns and 147844 nonzeros
Model fingerprint: 0x450d8beb
Variable types: 17403 continuous, 17394 integer (17394 binary)
Coefficient statistics:
  Matrix range     [1e-04, 8e+04]
  Objective range  [1e-04, 3e+00]
  Bounds range     [1e+00, 1e+03]
  RHS range        [1e+00, 1e+00]
Presolve removed 31201 rows and 21838 columns
Presolve time: 0.48s
Presolved: 16457 rows, 12959 columns, 54689 nonzeros
Variable types: 6413 continuous, 6546 integer (6546 binary)

Root relaxation: objective 1.472665e-03, 775 iterations, 0.07 seconds (0.06 work units)

    Nodes    |    Current Node    |     Objective Bounds      |     Work
 Expl Unexpl |  Obj  Depth IntInf | Incumbent    BestBd   Gap | It/Node Time

     0     0    0.00147    0   11          -    0.00147      -     -    0s
H    0     0                       1.1941898    0.00147   100%     -    0s
     0     0    1.15144    0   17    1.19419    1.15144  3.58%     -    1s
     0     0    1.15144    0   16    1.19419    1.15144  3.58%     -    1s
     0     0    1.15144    0   15    1.19419    1.15144  3.58%     -    1s
     0     0    1.15151    0    8    1.19419    1.15151  3.57%     -    1s
     0     0    1.15875    0   10    1.19419    1.15875  2.97%     -    1s
     0     0    1.15875    0    9    1.19419    1.15875  2.97%     -    1s

Explored 1 nodes (2469 simplex iterations) in 1.28 seconds (1.01 work units)
Thread count was 18 (of 18 available processors)

Solution count 1: 1.19419 

Optimal solution found (tolerance 1.00e-04)
Best objective 1.194189844434e+00, best bound 1.194189844434e+00, gap 0.0000%
